&control
    prefix = 'c6h6'
    calculation = 'scf'
    restart_mode = 'from_scratch'
    pseudo_dir = './pseudo/'
    outdir = './scratch/'
    tstress = .false.
    tprnfor = .true.
/

&system
    ibrav = 8
    celldm(1) = 24.45306579840016                                                                                                   
    celldm(2) = 1.0
    celldm(3) = 0.8
    nat = 12
    ntyp = 2
    ecutwfc = 20
    nosym = .true.
/

&electrons
    diagonalization = 'david'
    conv_thr = 1.d-10
/

ATOMIC_SPECIES
C    12.00000  C.pz-vbc.UPF
H     1.00000  H.pz-vbc.UPF

K_POINTS automatic
1 1 1    0 0 0

ATOMIC_POSITIONS angstrom
H   3.97999999999988   5.00000000000000   3.50000000000000
C   5.07999999999987   5.00000000000000   3.50000000000000
C   5.77500000000000   6.20377531126040   3.50000000000000
H   5.22500000000007   7.15640325542330   3.50000000000000
C   5.77500000000000   3.79622468873960   3.50000000000000
H   5.22500000000007   2.84359674457670   3.50000000000000
C   7.16500000000000   6.20377531126040   3.50000000000000
H   7.71499999999993   7.15640325542330   3.50000000000000
C   7.16500000000000   3.79622468873960   3.50000000000000
H   7.71499999999993   2.84359674457670   3.50000000000000
C   7.86000000000013   5.00000000000000   3.50000000000000
H   8.96000000000012   5.00000000000000   3.50000000000000

