&control
    calculation  = 'scf'
    restart_mode = 'from_scratch'
    prefix       = 'h2'
    tstress      = .false.
    tprnfor      = .true.
    pseudo_dir   = './pseudo/'
    outdir       = './scratch/'
/
&system
    ibrav=  1
    celldm(1) = 18.89725988578923
    nat=  2
    ntyp= 1
    ecutwfc = 60.0
    nbnd = 1
    nspin = 1
    nosym = .true.
/
&electrons
    diagonalization = 'cg'
    mixing_mode = 'plain'
    mixing_beta = 0.7
    conv_thr =  1.0d-12
/
&ions
    ion_dynamics = 'none'
/
ATOMIC_SPECIES
H  1.00794   H.pbe-tm.UPF

ATOMIC_POSITIONS {angstroms}
H   4.63000000000000   5.00000000000000   5.00000000000000
H   5.37000000000000   5.00000000000000   5.00000000000000

K_POINTS {automatic}
1 1 1 0 0 0
